certificates/rado_a9_c254_N29.cnf
c Rad2 upper bound instance: x1 + 9*x2 - x3 = 254, interval [1,29]
p cnf 29 152
1 8 29 0
-1 -8 -29 0
2 9 29 0
-2 -9 -29 0
1 3 28 0
-1 -3 -28 0
3 10 29 0
-3 -10 -29 0
2 4 28 0
-2 -4 -28 0
4 11 29 0
-4 -11 -29 0
3 5 28 0
-3 -5 -28 0
5 12 29 0
-5 -12 -29 0
4 6 28 0
-4 -6 -28 0
6 13 29 0
-6 -13 -29 0
5 7 28 0
-5 -7 -28 0
7 14 29 0
-7 -14 -29 0
6 8 28 0
-6 -8 -28 0
8 15 29 0
-8 -15 -29 0
7 9 28 0
-7 -9 -28 0
9 16 29 0
-9 -16 -29 0
8 10 28 0
-8 -10 -28 0
10 17 29 0
-10 -17 -29 0
9 11 28 0
-9 -11 -28 0
11 18 29 0
-11 -18 -29 0
1 12 27 0
-1 -12 -27 0
10 12 28 0
-10 -12 -28 0
12 19 29 0
-12 -19 -29 0
2 13 27 0
-2 -13 -27 0
11 13 28 0
-11 -13 -28 0
13 20 29 0
-13 -20 -29 0
3 14 27 0
-3 -14 -27 0
12 14 28 0
-12 -14 -28 0
14 21 29 0
-14 -21 -29 0
4 15 27 0
-4 -15 -27 0
13 15 28 0
-13 -15 -28 0
15 22 29 0
-15 -22 -29 0
5 16 27 0
-5 -16 -27 0
14 16 28 0
-14 -16 -28 0
16 23 29 0
-16 -23 -29 0
6 17 27 0
-6 -17 -27 0
15 17 28 0
-15 -17 -28 0
17 24 29 0
-17 -24 -29 0
7 18 27 0
-7 -18 -27 0
16 18 28 0
-16 -18 -28 0
18 25 29 0
-18 -25 -29 0
8 19 27 0
-8 -19 -27 0
17 19 28 0
-17 -19 -28 0
19 26 29 0
-19 -26 -29 0
9 20 27 0
-9 -20 -27 0
18 20 28 0
-18 -20 -28 0
20 27 29 0
-20 -27 -29 0
1 21 26 0
-1 -21 -26 0
10 21 27 0
-10 -21 -27 0
19 21 28 0
-19 -21 -28 0
21 28 29 0
-21 -28 -29 0
2 22 26 0
-2 -22 -26 0
11 22 27 0
-11 -22 -27 0
20 22 28 0
-20 -22 -28 0
22 29 0
-22 -29 0
3 23 26 0
-3 -23 -26 0
12 23 27 0
-12 -23 -27 0
21 23 28 0
-21 -23 -28 0
4 24 26 0
-4 -24 -26 0
13 24 27 0
-13 -24 -27 0
22 24 28 0
-22 -24 -28 0
5 25 26 0
-5 -25 -26 0
14 25 27 0
-14 -25 -27 0
23 25 28 0
-23 -25 -28 0
6 26 0
-6 -26 0
15 26 27 0
-15 -26 -27 0
24 26 28 0
-24 -26 -28 0
7 26 27 0
-7 -26 -27 0
16 27 0
-16 -27 0
25 27 28 0
-25 -27 -28 0
8 26 28 0
-8 -26 -28 0
17 27 28 0
-17 -27 -28 0
26 28 0
-26 -28 0
9 26 29 0
-9 -26 -29 0
18 27 29 0
-18 -27 -29 0
27 28 29 0
-27 -28 -29 0
