certificates/rado_a9_c254_N29.drat
-28 -29 0
-29 0
22 0
28 0
-26 0
-20 0
-24 0
6 0
19 0
9 0
13 0
27 0
17 0
4 0
0
